S = 7;
start = [|0,0,0,0,0,20,0,0,0,0,0,15,17,42,47,0,16,0,7,0,0,39,0,0,0,0,0,22,9,10,12,0,0,4,43,0,0,0,0,31,38,1,45,28,36,0,0,8,26|
0,0,0,0,0,41,0,12,0,0,0,0,20,11,0,44,0,0,0,39,0,0,49,0,6,14,0,0,0,0,0,0,0,15,0,0,0,45,0,7,0,9,0,37,25,0,0,0,0|
0,0,0,0,0,39,0,0,0,0,0,0,2,0,0,42,0,0,0,0,0,0,0,0,0,0,0,0,0,0,0,0,21,0,0,0,5,0,0,0,0,0,0,6,0,0,43,0,0|
0,10,0,43,0,0,0,0,31,9,0,0,0,30,0,0,0,0,0,0,6,0,0,0,0,0,0,0,0,37,44,0,0,0,0,16,0,11,0,0,42,0,0,35,41,0,5,1,0|
18,0,9,0,0,0,0,0,0,0,0,0,0,0,37,0,0,38,43,0,0,0,0,0,0,15,29,0,11,0,0,31,42,0,45,0,0,0,20,0,39,0,27,0,0,4,0,0,0|
0,0,0,6,21,37,0,0,0,0,0,0,0,0,0,0,0,15,0,11,0,0,0,0,12,35,0,0,0,0,0,0,40,19,0,0,0,0,0,0,24,0,0,0,18,17,0,0,0|
0,0,35,17,29,0,16,0,19,0,0,49,0,6,0,0,0,0,27,0,0,0,0,21,30,0,37,0,0,0,0,41,0,0,0,33,2,0,0,0,10,4,0,0,47,0,9,24,0|
31,0,0,0,0,0,0,0,39,0,0,0,13,23,0,0,0,0,30,37,0,0,7,0,0,0,0,0,0,0,0,0,48,0,0,15,41,0,0,25,0,0,10,0,0,1,0,45,0|
0,15,0,0,0,0,0,5,0,24,0,0,0,0,0,29,11,0,0,0,0,0,0,0,0,0,0,43,0,0,45,0,0,0,0,0,0,10,0,21,0,49,0,0,0,0,0,18,0|
2,0,0,0,0,10,0,4,0,0,0,42,0,0,0,25,34,31,0,0,0,0,0,0,0,0,0,0,0,33,26,0,0,0,0,0,0,0,0,40,45,0,5,0,0,41,36,49,28|
0,0,0,0,0,0,0,0,0,0,0,0,0,0,0,0,0,40,0,0,0,0,0,0,25,0,0,35,0,0,0,0,0,0,0,5,8,0,32,0,1,0,0,7,0,15,0,33,0|
7,0,0,49,0,42,0,8,0,0,0,29,0,0,0,17,0,0,0,23,0,0,0,0,0,0,0,6,0,0,0,25,1,11,0,0,16,0,0,0,47,0,0,40,0,0,0,0,0|
0,0,17,46,0,0,41,0,34,0,0,0,0,0,0,0,44,21,45,0,12,0,0,0,0,47,42,0,0,4,0,0,0,0,0,20,0,0,2,0,7,0,0,19,0,6,11,0,0|
5,1,0,0,14,0,0,0,0,44,0,0,0,0,0,0,39,0,0,8,0,0,24,0,11,0,0,0,0,0,0,0,0,0,0,0,0,0,26,0,0,18,0,0,0,38,34,0,0|
0,0,0,0,0,0,0,28,0,29,0,0,30,0,0,0,17,0,0,0,0,31,0,0,0,34,0,0,20,13,0,23,0,0,0,0,0,0,43,0,0,0,0,0,38,0,0,2,0|
0,0,42,0,0,0,0,0,0,48,0,0,0,0,0,36,0,0,25,31,0,0,0,0,0,0,0,0,0,0,9,0,0,0,0,0,0,0,0,0,5,41,0,0,0,0,0,0,0|
0,0,0,0,6,46,39,0,0,2,0,0,0,12,0,0,0,0,22,0,0,24,0,0,0,0,0,0,0,29,0,33,0,0,0,0,0,0,0,0,0,8,0,0,0,0,31,41,0|
0,0,0,0,0,0,0,43,0,33,0,0,44,0,0,0,0,0,0,12,20,0,19,0,0,0,0,0,0,49,0,16,45,0,0,0,27,3,47,0,0,0,0,0,5,46,0,0,0|
37,0,0,0,2,35,0,0,25,1,0,0,5,0,0,0,0,0,0,48,0,0,0,0,16,43,39,30,0,0,0,0,0,0,0,0,0,22,24,23,0,0,0,0,9,7,0,0,0|
0,41,0,0,0,0,0,0,0,39,0,7,0,0,0,0,43,28,0,27,23,0,0,0,0,0,0,0,0,0,0,36,5,0,38,0,19,9,0,0,0,0,1,12,0,0,0,0,0|
0,0,43,31,0,25,0,27,35,0,0,22,0,0,34,0,42,0,0,24,0,0,0,0,0,0,0,0,0,0,0,0,0,0,0,0,0,15,0,0,48,0,0,0,0,0,0,0,0|
45,43,16,0,0,32,0,0,0,0,0,46,9,0,0,0,8,17,36,0,0,0,0,0,0,0,24,39,25,0,0,5,0,22,0,0,35,44,31,0,0,0,0,0,1,47,0,0,0|
0,0,0,0,0,1,49,36,45,0,12,32,21,0,7,0,5,0,0,29,0,43,42,0,44,20,0,0,0,40,0,0,18,8,0,0,26,24,0,0,0,25,0,0,0,0,0,0,0|
0,0,0,0,46,29,0,34,0,0,0,0,40,18,0,0,49,0,0,33,0,0,0,0,45,21,0,0,41,17,0,0,0,0,9,0,0,8,14,32,0,0,13,0,0,2,0,0,0|
34,0,44,0,35,0,0,0,7,0,0,25,0,0,42,0,20,43,0,0,38,0,17,0,0,0,0,0,0,0,0,0,28,0,6,0,0,0,0,0,0,0,14,0,0,0,0,0,0|
0,5,0,0,0,0,33,16,0,28,0,0,0,35,46,0,0,0,4,2,0,25,0,41,0,0,0,0,0,3,0,0,0,44,7,0,0,0,1,0,0,0,21,31,40,0,0,0,17|
0,0,0,0,24,0,36,0,0,0,0,0,0,29,28,0,0,0,0,0,25,46,0,0,0,0,0,0,16,11,0,0,0,0,0,45,0,5,0,0,41,7,0,0,0,0,12,0,0|
0,0,0,0,0,0,9,0,1,0,0,0,0,0,0,34,0,0,0,0,0,0,0,0,23,7,0,0,0,0,0,26,4,12,42,2,0,29,0,0,49,0,46,0,6,0,0,0,16|
0,0,0,11,0,23,3,0,18,0,0,0,38,7,39,12,29,19,0,0,0,8,0,0,0,0,0,46,0,0,0,0,32,0,41,0,1,16,22,37,0,5,0,0,0,0,0,0,2|
0,32,36,0,0,0,48,19,0,0,0,27,0,0,5,0,0,0,0,0,2,0,0,44,0,0,0,0,0,22,0,0,47,0,0,0,0,0,41,0,35,0,0,0,0,31,0,0,6|
0,0,12,35,27,40,0,0,0,0,0,0,0,0,0,37,3,0,0,0,49,0,39,0,0,0,31,0,0,5,0,0,0,0,0,24,0,0,0,0,0,0,0,41,22,0,13,0,9|
0,34,0,0,0,31,0,44,6,40,0,0,0,0,4,18,0,0,17,0,0,0,28,0,0,37,0,0,7,0,0,30,33,0,0,0,32,12,0,0,21,10,0,0,0,8,16,29,0|
29,0,0,0,0,0,0,0,28,0,0,0,0,0,0,0,0,33,0,0,0,6,0,0,0,0,0,26,0,0,0,0,0,0,0,0,0,27,0,0,31,0,0,0,0,37,0,0,30|
49,0,0,2,22,0,24,0,0,42,0,0,0,0,0,43,27,0,0,0,31,19,0,0,0,0,25,0,0,36,0,0,0,0,0,0,0,7,0,38,30,47,44,0,0,5,0,0,0|
0,37,0,0,0,0,5,48,0,0,0,0,0,0,30,0,0,0,0,0,22,0,0,0,0,0,17,27,31,0,0,0,2,0,0,0,49,0,0,0,0,0,0,0,3,0,15,0,19|
0,0,0,0,0,0,0,0,0,0,0,0,0,0,0,0,0,0,1,38,0,0,0,31,0,33,0,0,17,41,0,11,0,0,0,28,29,35,0,15,0,0,0,0,32,0,0,0,0|
0,47,32,0,0,2,0,0,0,0,28,0,0,21,0,9,0,0,0,0,0,0,0,0,0,0,0,16,39,44,0,0,37,0,0,0,38,0,0,0,19,34,0,0,17,48,25,6,49|
0,0,0,0,0,6,38,11,0,0,0,0,48,44,0,23,0,0,41,36,0,0,0,0,35,0,0,0,0,8,0,47,43,32,0,0,0,49,37,0,0,0,0,0,0,0,2,0,24|
25,0,0,0,45,0,43,0,0,0,37,0,0,0,0,0,0,0,0,0,0,23,0,0,0,0,0,7,0,0,0,0,0,0,0,0,10,0,0,0,33,0,0,0,44,36,0,0,0|
17,19,0,0,0,0,12,0,15,0,10,0,0,0,0,0,37,16,0,0,0,21,0,0,0,0,0,0,0,0,0,0,0,0,3,0,6,14,30,0,0,24,29,0,0,0,41,35,0|
0,0,0,0,0,0,0,0,0,3,6,20,0,0,19,0,0,0,0,25,0,4,0,0,0,0,0,49,0,0,29,0,0,0,2,0,0,0,45,0,16,23,39,43,0,42,0,0,0|
0,0,15,0,0,0,1,0,49,0,29,0,0,4,0,0,32,0,28,42,39,12,0,8,19,0,36,0,21,0,18,0,10,46,0,0,0,0,0,0,2,0,0,0,0,9,0,13,33|
0,38,20,0,0,0,0,24,0,10,41,8,4,0,0,1,12,0,0,0,29,0,0,0,0,0,0,0,14,0,0,0,27,2,0,0,0,0,0,0,0,0,6,0,0,0,32,0,7|
0,0,0,0,15,0,0,17,33,18,40,16,0,0,23,0,0,0,0,0,0,37,32,0,7,0,0,0,0,0,0,0,0,0,0,1,0,28,48,6,36,0,41,8,39,25,19,0,12|
0,33,0,0,32,0,30,14,0,0,27,6,0,0,0,0,0,0,0,0,3,2,0,0,42,44,0,0,8,0,0,0,0,40,0,0,0,0,46,0,26,19,0,0,21,0,0,0,0|
0,0,0,0,0,0,0,0,12,0,0,0,0,28,0,0,0,0,0,0,0,0,0,0,0,39,0,0,0,0,41,0,0,36,0,42,0,0,0,0,0,27,0,0,45,0,0,0,5|
0,0,0,0,0,0,19,0,3,0,0,0,0,25,0,0,6,0,0,0,0,22,0,0,0,0,0,0,0,0,0,0,0,0,0,0,0,0,0,33,0,0,0,4,0,0,0,0,0|
0,0,0,0,39,4,21,0,0,0,0,0,0,0,0,0,0,0,0,0,0,0,0,0,0,48,0,1,30,23,0,0,0,31,0,0,0,20,0,41,0,35,0,2,0,0,0,0,0|
0,0,18,0,0,45,42,0,0,0,0,0,0,0,11,27,0,37,0,0,19,0,0,0,17,0,6,29,0,0,0,0,0,49,0,0,7,0,0,0,0,0,31,0,0,0,0,47,0|];